
******************************************************************************
This program contains Ipopt, a library for large-scale nonlinear optimization.
 Ipopt is released as open source code under the Eclipse Public License (EPL).
         For more information visit http://projects.coin-or.org/Ipopt
******************************************************************************

This is Ipopt version 3.12.6, running with linear solver ma57.

Number of nonzeros in equality constraint Jacobian...:        0
Number of nonzeros in inequality constraint Jacobian.:        2
Number of nonzeros in Lagrangian Hessian.............:        3

Total number of variables............................:        2
                     variables with only lower bounds:        0
                variables with lower and upper bounds:        2
                     variables with only upper bounds:        0
Total number of equality constraints.................:        0
Total number of inequality constraints...............:        1
        inequality constraints with only lower bounds:        1
   inequality constraints with lower and upper bounds:        0
        inequality constraints with only upper bounds:        0

iter    objective    inf_pr   inf_du lg(mu)  ||d||  lg(rg) alpha_du alpha_pr  ls
   0  8.5615127e+01 0.00e+00 1.00e+00  -1.0 0.00e+00    -  0.00e+00 0.00e+00   0
   1  8.5275902e+01 0.00e+00 3.69e-01  -1.0 6.85e-01    -  6.32e-01 1.00e+00f  1
   2  8.4837245e+01 0.00e+00 7.05e-01  -1.0 7.11e-01   0.0 9.91e-01 1.00e+00f  1
   3  8.2549729e+01 0.00e+00 9.55e-01  -1.7 2.79e+00  -0.5 4.80e-01 1.00e+00f  1
   4  2.4052596e+01 2.26e+02 8.90e-01  -1.7 6.33e+01  -1.0 1.48e-01 1.00e+00f  1
   5  9.0640985e+00 0.00e+00 3.34e+00  -1.7 1.59e+01  -0.5 5.95e-01 1.00e+00h  1
   6  3.7182909e+00 0.00e+00 8.58e-01  -1.7 4.62e+00  -1.0 1.00e+00 1.00e+00h  1
   7 -4.1138583e+00 5.06e+01 1.18e+00  -1.7 2.17e+01  -1.5 1.00e+00 1.00e+00f  1
   8 -6.6454640e+00 0.00e+00 1.52e-01  -1.7 6.38e+00  -2.0 1.00e+00 1.00e+00h  1
   9 -6.6349060e+00 0.00e+00 1.16e-02  -1.7 1.30e+00  -2.4 1.00e+00 1.00e+00h  1
iter    objective    inf_pr   inf_du lg(mu)  ||d||  lg(rg) alpha_du alpha_pr  ls
  10 -6.6399860e+00 0.00e+00 3.35e-03  -1.7 2.75e+00  -2.9 1.00e+00 1.00e+00h  1
  11 -6.6721846e+00 0.00e+00 3.67e-03  -3.8 9.04e+00  -3.4 1.00e+00 1.00e+00h  1
  12 -6.8097252e+00 0.00e+00 4.53e-03  -3.8 3.35e+01  -3.9 1.00e+00 1.00e+00f  1
  13 -8.1976271e+00 1.16e-01 2.35e-02  -3.8 2.36e+02  -4.3 1.00e+00 8.22e-01f  1
  14 -8.1979148e+00 1.46e-01 2.35e-02  -3.8 9.51e+01    -  1.00e+00 3.07e-04h  1
  15 -8.1979887e+00 0.00e+00 3.72e-05  -3.8 1.51e-01    -  1.00e+00 1.00e+00f  1
  16 -8.1978938e+00 0.00e+00 1.50e-09  -3.8 3.29e-03    -  1.00e+00 1.00e+00h  1
  17 -8.1980424e+00 0.00e+00 2.24e-10  -5.7 1.51e-02    -  1.00e+00 1.00e+00h  1
  18 -8.1980442e+00 0.00e+00 3.36e-14  -8.6 1.87e-04    -  1.00e+00 1.00e+00h  1

Number of Iterations....: 18

                                   (scaled)                 (unscaled)
Objective...............:  -8.1980442108238094e+00   -8.1980442108238094e+00
Dual infeasibility......:   3.3599708896074655e-14    3.3599708896074655e-14
Constraint violation....:   0.0000000000000000e+00    0.0000000000000000e+00
Complementarity.........:   2.5064053674811317e-09    2.5064053674811317e-09
Overall NLP error.......:   2.5064053674811317e-09    2.5064053674811317e-09


Number of objective function evaluations             = 19
Number of objective gradient evaluations             = 19
Number of equality constraint evaluations            = 0
Number of inequality constraint evaluations          = 19
Number of equality constraint Jacobian evaluations   = 0
Number of inequality constraint Jacobian evaluations = 19
Number of Lagrangian Hessian evaluations             = 18
Total CPU secs in IPOPT (w/o function evaluations)   =      0.007
Total CPU secs in NLP function evaluations           =      0.000

EXIT: Optimal Solution Found.

************************ CUTEst statistics ************************


 Package used            :  IPOPT
 Problem                 :  HIMMELP2  
 # variables             =               2
 # constraints           =               1
 # objective functions   =        0.3900000E+02
 # objective gradients   =        0.2000000E+02
 # objective Hessians    =        0.1900000E+02
 # Hessian-vector prdct  =        0.0000000E+00
 # constraints functions =        0.4000000E+02
 # constraints gradients =        0.2100000E+02
 # constraints Hessians  =        0.1900000E+02
 Exit code               =               0
 Final f                 =  -0.8198044E+01
 Set up time             =            0.00 seconds
 Solve time              =            0.02 seconds


******************************************************************

System Time =       0.0060000001 s.
